\ Model Truck_Routing
\ LP format - for model browsing. Use MPS format to capture full model detail.
Minimize
  537.5 x[V1,D0,C1] + 655 x[V1,D0,C2] + 787.5 x[V1,D0,C3] + 380 x[V1,D0,C4]
   + 545 x[V1,D0,C5] + 125 x[V1,D0,C6] + 605 x[V1,D0,C7]
   + 297.5 x[V1,D0,C8] + 312.5 x[V1,D0,C9] + 252.5 x[V1,D0,C10]
   + 537.5 x[V1,C1,D0] + 162.5 x[V1,C1,C2] + 295 x[V1,C1,C3]
   + 752.5 x[V1,C1,C4] + 72.5 x[V1,C1,C5] + 417.5 x[V1,C1,C6]
   + 422.5 x[V1,C1,C7] + 420 x[V1,C1,C8] + 225 x[V1,C1,C9]
   + 435 x[V1,C1,C10] + 655 x[V1,C2,D0] + 162.5 x[V1,C2,C1]
   + 132.5 x[V1,C2,C3] + 800 x[V1,C2,C4] + 235 x[V1,C2,C5]
   + 580 x[V1,C2,C6] + 470 x[V1,C2,C7] + 467.5 x[V1,C2,C8]
   + 357.5 x[V1,C2,C9] + 482.5 x[V1,C2,C10] + 787.5 x[V1,C3,D0]
   + 295 x[V1,C3,C1] + 132.5 x[V1,C3,C2] + 687.5 x[V1,C3,C4]
   + 367.5 x[V1,C3,C5] + 712.5 x[V1,C3,C6] + 357.5 x[V1,C3,C7]
   + 490 x[V1,C3,C8] + 490 x[V1,C3,C9] + 535 x[V1,C3,C10] + 380 x[V1,C4,D0]
   + 752.5 x[V1,C4,C1] + 800 x[V1,C4,C2] + 687.5 x[V1,C4,C3]
   + 760 x[V1,C4,C5] + 340 x[V1,C4,C6] + 330 x[V1,C4,C7]
   + 332.5 x[V1,C4,C8] + 527.5 x[V1,C4,C9] + 317.5 x[V1,C4,C10]
   + 545 x[V1,C5,D0] + 72.5 x[V1,C5,C1] + 235 x[V1,C5,C2]
   + 367.5 x[V1,C5,C3] + 760 x[V1,C5,C4] + 420 x[V1,C5,C6]
   + 430 x[V1,C5,C7] + 427.5 x[V1,C5,C8] + 232.5 x[V1,C5,C9]
   + 442.5 x[V1,C5,C10] + 125 x[V1,C6,D0] + 417.5 x[V1,C6,C1]
   + 580 x[V1,C6,C2] + 712.5 x[V1,C6,C3] + 340 x[V1,C6,C4]
   + 420 x[V1,C6,C5] + 530 x[V1,C6,C7] + 222.5 x[V1,C6,C8]
   + 222.5 x[V1,C6,C9] + 177.5 x[V1,C6,C10] + 605 x[V1,C7,D0]
   + 422.5 x[V1,C7,C1] + 470 x[V1,C7,C2] + 357.5 x[V1,C7,C3]
   + 330 x[V1,C7,C4] + 430 x[V1,C7,C5] + 530 x[V1,C7,C6]
   + 307.5 x[V1,C7,C8] + 307.5 x[V1,C7,C9] + 352.5 x[V1,C7,C10]
   + 297.5 x[V1,C8,D0] + 420 x[V1,C8,C1] + 467.5 x[V1,C8,C2]
   + 490 x[V1,C8,C3] + 332.5 x[V1,C8,C4] + 427.5 x[V1,C8,C5]
   + 222.5 x[V1,C8,C6] + 307.5 x[V1,C8,C7] + 195 x[V1,C8,C9]
   + 45 x[V1,C8,C10] + 312.5 x[V1,C9,D0] + 225 x[V1,C9,C1]
   + 357.5 x[V1,C9,C2] + 490 x[V1,C9,C3] + 527.5 x[V1,C9,C4]
   + 232.5 x[V1,C9,C5] + 222.5 x[V1,C9,C6] + 307.5 x[V1,C9,C7]
   + 195 x[V1,C9,C8] + 210 x[V1,C9,C10] + 252.5 x[V1,C10,D0]
   + 435 x[V1,C10,C1] + 482.5 x[V1,C10,C2] + 535 x[V1,C10,C3]
   + 317.5 x[V1,C10,C4] + 442.5 x[V1,C10,C5] + 177.5 x[V1,C10,C6]
   + 352.5 x[V1,C10,C7] + 45 x[V1,C10,C8] + 210 x[V1,C10,C9]
   + 537.5 x[V2,D0,C1] + 655 x[V2,D0,C2] + 787.5 x[V2,D0,C3]
   + 380 x[V2,D0,C4] + 545 x[V2,D0,C5] + 125 x[V2,D0,C6] + 605 x[V2,D0,C7]
   + 297.5 x[V2,D0,C8] + 312.5 x[V2,D0,C9] + 252.5 x[V2,D0,C10]
   + 537.5 x[V2,C1,D0] + 162.5 x[V2,C1,C2] + 295 x[V2,C1,C3]
   + 752.5 x[V2,C1,C4] + 72.5 x[V2,C1,C5] + 417.5 x[V2,C1,C6]
   + 422.5 x[V2,C1,C7] + 420 x[V2,C1,C8] + 225 x[V2,C1,C9]
   + 435 x[V2,C1,C10] + 655 x[V2,C2,D0] + 162.5 x[V2,C2,C1]
   + 132.5 x[V2,C2,C3] + 800 x[V2,C2,C4] + 235 x[V2,C2,C5]
   + 580 x[V2,C2,C6] + 470 x[V2,C2,C7] + 467.5 x[V2,C2,C8]
   + 357.5 x[V2,C2,C9] + 482.5 x[V2,C2,C10] + 787.5 x[V2,C3,D0]
   + 295 x[V2,C3,C1] + 132.5 x[V2,C3,C2] + 687.5 x[V2,C3,C4]
   + 367.5 x[V2,C3,C5] + 712.5 x[V2,C3,C6] + 357.5 x[V2,C3,C7]
   + 490 x[V2,C3,C8] + 490 x[V2,C3,C9] + 535 x[V2,C3,C10] + 380 x[V2,C4,D0]
   + 752.5 x[V2,C4,C1] + 800 x[V2,C4,C2] + 687.5 x[V2,C4,C3]
   + 760 x[V2,C4,C5] + 340 x[V2,C4,C6] + 330 x[V2,C4,C7]
   + 332.5 x[V2,C4,C8] + 527.5 x[V2,C4,C9] + 317.5 x[V2,C4,C10]
   + 545 x[V2,C5,D0] + 72.5 x[V2,C5,C1] + 235 x[V2,C5,C2]
   + 367.5 x[V2,C5,C3] + 760 x[V2,C5,C4] + 420 x[V2,C5,C6]
   + 430 x[V2,C5,C7] + 427.5 x[V2,C5,C8] + 232.5 x[V2,C5,C9]
   + 442.5 x[V2,C5,C10] + 125 x[V2,C6,D0] + 417.5 x[V2,C6,C1]
   + 580 x[V2,C6,C2] + 712.5 x[V2,C6,C3] + 340 x[V2,C6,C4]
   + 420 x[V2,C6,C5] + 530 x[V2,C6,C7] + 222.5 x[V2,C6,C8]
   + 222.5 x[V2,C6,C9] + 177.5 x[V2,C6,C10] + 605 x[V2,C7,D0]
   + 422.5 x[V2,C7,C1] + 470 x[V2,C7,C2] + 357.5 x[V2,C7,C3]
   + 330 x[V2,C7,C4] + 430 x[V2,C7,C5] + 530 x[V2,C7,C6]
   + 307.5 x[V2,C7,C8] + 307.5 x[V2,C7,C9] + 352.5 x[V2,C7,C10]
   + 297.5 x[V2,C8,D0] + 420 x[V2,C8,C1] + 467.5 x[V2,C8,C2]
   + 490 x[V2,C8,C3] + 332.5 x[V2,C8,C4] + 427.5 x[V2,C8,C5]
   + 222.5 x[V2,C8,C6] + 307.5 x[V2,C8,C7] + 195 x[V2,C8,C9]
   + 45 x[V2,C8,C10] + 312.5 x[V2,C9,D0] + 225 x[V2,C9,C1]
   + 357.5 x[V2,C9,C2] + 490 x[V2,C9,C3] + 527.5 x[V2,C9,C4]
   + 232.5 x[V2,C9,C5] + 222.5 x[V2,C9,C6] + 307.5 x[V2,C9,C7]
   + 195 x[V2,C9,C8] + 210 x[V2,C9,C10] + 252.5 x[V2,C10,D0]
   + 435 x[V2,C10,C1] + 482.5 x[V2,C10,C2] + 535 x[V2,C10,C3]
   + 317.5 x[V2,C10,C4] + 442.5 x[V2,C10,C5] + 177.5 x[V2,C10,C6]
   + 352.5 x[V2,C10,C7] + 45 x[V2,C10,C8] + 210 x[V2,C10,C9] + 500 y[V1]
   + 500 y[V2] + 0 t[V1,D0] + 0 t[V1,C1] + 0 t[V1,C2] + 0 t[V1,C3]
   + 0 t[V1,C4] + 0 t[V1,C5] + 0 t[V1,C6] + 0 t[V1,C7] + 0 t[V1,C8]
   + 0 t[V1,C9] + 0 t[V1,C10] + 0 t[V2,D0] + 0 t[V2,C1] + 0 t[V2,C2]
   + 0 t[V2,C3] + 0 t[V2,C4] + 0 t[V2,C5] + 0 t[V2,C6] + 0 t[V2,C7]
   + 0 t[V2,C8] + 0 t[V2,C9] + 0 t[V2,C10]
Subject To
 Each_customer_visited_once: x[V1,D0,C1] + x[V1,C2,C1] + x[V1,C3,C1]
   + x[V1,C4,C1] + x[V1,C5,C1] + x[V1,C6,C1] + x[V1,C7,C1] + x[V1,C8,C1]
   + x[V1,C9,C1] + x[V1,C10,C1] + x[V2,D0,C1] + x[V2,C2,C1] + x[V2,C3,C1]
   + x[V2,C4,C1] + x[V2,C5,C1] + x[V2,C6,C1] + x[V2,C7,C1] + x[V2,C8,C1]
   + x[V2,C9,C1] + x[V2,C10,C1] = 1
 Each_customer_visited_once: x[V1,D0,C2] + x[V1,C1,C2] + x[V1,C3,C2]
   + x[V1,C4,C2] + x[V1,C5,C2] + x[V1,C6,C2] + x[V1,C7,C2] + x[V1,C8,C2]
   + x[V1,C9,C2] + x[V1,C10,C2] + x[V2,D0,C2] + x[V2,C1,C2] + x[V2,C3,C2]
   + x[V2,C4,C2] + x[V2,C5,C2] + x[V2,C6,C2] + x[V2,C7,C2] + x[V2,C8,C2]
   + x[V2,C9,C2] + x[V2,C10,C2] = 1
 Each_customer_visited_once: x[V1,D0,C3] + x[V1,C1,C3] + x[V1,C2,C3]
   + x[V1,C4,C3] + x[V1,C5,C3] + x[V1,C6,C3] + x[V1,C7,C3] + x[V1,C8,C3]
   + x[V1,C9,C3] + x[V1,C10,C3] + x[V2,D0,C3] + x[V2,C1,C3] + x[V2,C2,C3]
   + x[V2,C4,C3] + x[V2,C5,C3] + x[V2,C6,C3] + x[V2,C7,C3] + x[V2,C8,C3]
   + x[V2,C9,C3] + x[V2,C10,C3] = 1
 Each_customer_visited_once: x[V1,D0,C4] + x[V1,C1,C4] + x[V1,C2,C4]
   + x[V1,C3,C4] + x[V1,C5,C4] + x[V1,C6,C4] + x[V1,C7,C4] + x[V1,C8,C4]
   + x[V1,C9,C4] + x[V1,C10,C4] + x[V2,D0,C4] + x[V2,C1,C4] + x[V2,C2,C4]
   + x[V2,C3,C4] + x[V2,C5,C4] + x[V2,C6,C4] + x[V2,C7,C4] + x[V2,C8,C4]
   + x[V2,C9,C4] + x[V2,C10,C4] = 1
 Each_customer_visited_once: x[V1,D0,C5] + x[V1,C1,C5] + x[V1,C2,C5]
   + x[V1,C3,C5] + x[V1,C4,C5] + x[V1,C6,C5] + x[V1,C7,C5] + x[V1,C8,C5]
   + x[V1,C9,C5] + x[V1,C10,C5] + x[V2,D0,C5] + x[V2,C1,C5] + x[V2,C2,C5]
   + x[V2,C3,C5] + x[V2,C4,C5] + x[V2,C6,C5] + x[V2,C7,C5] + x[V2,C8,C5]
   + x[V2,C9,C5] + x[V2,C10,C5] = 1
 Each_customer_visited_once: x[V1,D0,C6] + x[V1,C1,C6] + x[V1,C2,C6]
   + x[V1,C3,C6] + x[V1,C4,C6] + x[V1,C5,C6] + x[V1,C7,C6] + x[V1,C8,C6]
   + x[V1,C9,C6] + x[V1,C10,C6] + x[V2,D0,C6] + x[V2,C1,C6] + x[V2,C2,C6]
   + x[V2,C3,C6] + x[V2,C4,C6] + x[V2,C5,C6] + x[V2,C7,C6] + x[V2,C8,C6]
   + x[V2,C9,C6] + x[V2,C10,C6] = 1
 Each_customer_visited_once: x[V1,D0,C7] + x[V1,C1,C7] + x[V1,C2,C7]
   + x[V1,C3,C7] + x[V1,C4,C7] + x[V1,C5,C7] + x[V1,C6,C7] + x[V1,C8,C7]
   + x[V1,C9,C7] + x[V1,C10,C7] + x[V2,D0,C7] + x[V2,C1,C7] + x[V2,C2,C7]
   + x[V2,C3,C7] + x[V2,C4,C7] + x[V2,C5,C7] + x[V2,C6,C7] + x[V2,C8,C7]
   + x[V2,C9,C7] + x[V2,C10,C7] = 1
 Each_customer_visited_once: x[V1,D0,C8] + x[V1,C1,C8] + x[V1,C2,C8]
   + x[V1,C3,C8] + x[V1,C4,C8] + x[V1,C5,C8] + x[V1,C6,C8] + x[V1,C7,C8]
   + x[V1,C9,C8] + x[V1,C10,C8] + x[V2,D0,C8] + x[V2,C1,C8] + x[V2,C2,C8]
   + x[V2,C3,C8] + x[V2,C4,C8] + x[V2,C5,C8] + x[V2,C6,C8] + x[V2,C7,C8]
   + x[V2,C9,C8] + x[V2,C10,C8] = 1
 Each_customer_visited_once: x[V1,D0,C9] + x[V1,C1,C9] + x[V1,C2,C9]
   + x[V1,C3,C9] + x[V1,C4,C9] + x[V1,C5,C9] + x[V1,C6,C9] + x[V1,C7,C9]
   + x[V1,C8,C9] + x[V1,C10,C9] + x[V2,D0,C9] + x[V2,C1,C9] + x[V2,C2,C9]
   + x[V2,C3,C9] + x[V2,C4,C9] + x[V2,C5,C9] + x[V2,C6,C9] + x[V2,C7,C9]
   + x[V2,C8,C9] + x[V2,C10,C9] = 1
 Each_customer_visited_once: x[V1,D0,C10] + x[V1,C1,C10] + x[V1,C2,C10]
   + x[V1,C3,C10] + x[V1,C4,C10] + x[V1,C5,C10] + x[V1,C6,C10]
   + x[V1,C7,C10] + x[V1,C8,C10] + x[V1,C9,C10] + x[V2,D0,C10]
   + x[V2,C1,C10] + x[V2,C2,C10] + x[V2,C3,C10] + x[V2,C4,C10]
   + x[V2,C5,C10] + x[V2,C6,C10] + x[V2,C7,C10] + x[V2,C8,C10]
   + x[V2,C9,C10] = 1
 Truck_leaves_depot_V1: x[V1,D0,C1] + x[V1,D0,C2] + x[V1,D0,C3]
   + x[V1,D0,C4] + x[V1,D0,C5] + x[V1,D0,C6] + x[V1,D0,C7] + x[V1,D0,C8]
   + x[V1,D0,C9] + x[V1,D0,C10] = 1
 Truck_leaves_depot_V2: x[V2,D0,C1] + x[V2,D0,C2] + x[V2,D0,C3]
   + x[V2,D0,C4] + x[V2,D0,C5] + x[V2,D0,C6] + x[V2,D0,C7] + x[V2,D0,C8]
   + x[V2,D0,C9] + x[V2,D0,C10] = 1
 Truck_leaves_depot_V1: x[V1,C1,D0] + x[V1,C2,D0] + x[V1,C3,D0]
   + x[V1,C4,D0] + x[V1,C5,D0] + x[V1,C6,D0] + x[V1,C7,D0] + x[V1,C8,D0]
   + x[V1,C9,D0] + x[V1,C10,D0] = 1
 Truck_leaves_depot_V2: x[V2,C1,D0] + x[V2,C2,D0] + x[V2,C3,D0]
   + x[V2,C4,D0] + x[V2,C5,D0] + x[V2,C6,D0] + x[V2,C7,D0] + x[V2,C8,D0]
   + x[V2,C9,D0] + x[V2,C10,D0] = 1
 Flow_balance_V1_C1: - x[V1,D0,C1] + x[V1,C1,D0] + x[V1,C1,C2]
   + x[V1,C1,C3] + x[V1,C1,C4] + x[V1,C1,C5] + x[V1,C1,C6] + x[V1,C1,C7]
   + x[V1,C1,C8] + x[V1,C1,C9] + x[V1,C1,C10] - x[V1,C2,C1] - x[V1,C3,C1]
   - x[V1,C4,C1] - x[V1,C5,C1] - x[V1,C6,C1] - x[V1,C7,C1] - x[V1,C8,C1]
   - x[V1,C9,C1] - x[V1,C10,C1] = 0
 Flow_balance_V1_C2: - x[V1,D0,C2] - x[V1,C1,C2] + x[V1,C2,D0]
   + x[V1,C2,C1] + x[V1,C2,C3] + x[V1,C2,C4] + x[V1,C2,C5] + x[V1,C2,C6]
   + x[V1,C2,C7] + x[V1,C2,C8] + x[V1,C2,C9] + x[V1,C2,C10] - x[V1,C3,C2]
   - x[V1,C4,C2] - x[V1,C5,C2] - x[V1,C6,C2] - x[V1,C7,C2] - x[V1,C8,C2]
   - x[V1,C9,C2] - x[V1,C10,C2] = 0
 Flow_balance_V1_C3: - x[V1,D0,C3] - x[V1,C1,C3] - x[V1,C2,C3]
   + x[V1,C3,D0] + x[V1,C3,C1] + x[V1,C3,C2] + x[V1,C3,C4] + x[V1,C3,C5]
   + x[V1,C3,C6] + x[V1,C3,C7] + x[V1,C3,C8] + x[V1,C3,C9] + x[V1,C3,C10]
   - x[V1,C4,C3] - x[V1,C5,C3] - x[V1,C6,C3] - x[V1,C7,C3] - x[V1,C8,C3]
   - x[V1,C9,C3] - x[V1,C10,C3] = 0
 Flow_balance_V1_C4: - x[V1,D0,C4] - x[V1,C1,C4] - x[V1,C2,C4]
   - x[V1,C3,C4] + x[V1,C4,D0] + x[V1,C4,C1] + x[V1,C4,C2] + x[V1,C4,C3]
   + x[V1,C4,C5] + x[V1,C4,C6] + x[V1,C4,C7] + x[V1,C4,C8] + x[V1,C4,C9]
   + x[V1,C4,C10] - x[V1,C5,C4] - x[V1,C6,C4] - x[V1,C7,C4] - x[V1,C8,C4]
   - x[V1,C9,C4] - x[V1,C10,C4] = 0
 Flow_balance_V1_C5: - x[V1,D0,C5] - x[V1,C1,C5] - x[V1,C2,C5]
   - x[V1,C3,C5] - x[V1,C4,C5] + x[V1,C5,D0] + x[V1,C5,C1] + x[V1,C5,C2]
   + x[V1,C5,C3] + x[V1,C5,C4] + x[V1,C5,C6] + x[V1,C5,C7] + x[V1,C5,C8]
   + x[V1,C5,C9] + x[V1,C5,C10] - x[V1,C6,C5] - x[V1,C7,C5] - x[V1,C8,C5]
   - x[V1,C9,C5] - x[V1,C10,C5] = 0
 Flow_balance_V1_C6: - x[V1,D0,C6] - x[V1,C1,C6] - x[V1,C2,C6]
   - x[V1,C3,C6] - x[V1,C4,C6] - x[V1,C5,C6] + x[V1,C6,D0] + x[V1,C6,C1]
   + x[V1,C6,C2] + x[V1,C6,C3] + x[V1,C6,C4] + x[V1,C6,C5] + x[V1,C6,C7]
   + x[V1,C6,C8] + x[V1,C6,C9] + x[V1,C6,C10] - x[V1,C7,C6] - x[V1,C8,C6]
   - x[V1,C9,C6] - x[V1,C10,C6] = 0
 Flow_balance_V1_C7: - x[V1,D0,C7] - x[V1,C1,C7] - x[V1,C2,C7]
   - x[V1,C3,C7] - x[V1,C4,C7] - x[V1,C5,C7] - x[V1,C6,C7] + x[V1,C7,D0]
   + x[V1,C7,C1] + x[V1,C7,C2] + x[V1,C7,C3] + x[V1,C7,C4] + x[V1,C7,C5]
   + x[V1,C7,C6] + x[V1,C7,C8] + x[V1,C7,C9] + x[V1,C7,C10] - x[V1,C8,C7]
   - x[V1,C9,C7] - x[V1,C10,C7] = 0
 Flow_balance_V1_C8: - x[V1,D0,C8] - x[V1,C1,C8] - x[V1,C2,C8]
   - x[V1,C3,C8] - x[V1,C4,C8] - x[V1,C5,C8] - x[V1,C6,C8] - x[V1,C7,C8]
   + x[V1,C8,D0] + x[V1,C8,C1] + x[V1,C8,C2] + x[V1,C8,C3] + x[V1,C8,C4]
   + x[V1,C8,C5] + x[V1,C8,C6] + x[V1,C8,C7] + x[V1,C8,C9] + x[V1,C8,C10]
   - x[V1,C9,C8] - x[V1,C10,C8] = 0
 Flow_balance_V1_C9: - x[V1,D0,C9] - x[V1,C1,C9] - x[V1,C2,C9]
   - x[V1,C3,C9] - x[V1,C4,C9] - x[V1,C5,C9] - x[V1,C6,C9] - x[V1,C7,C9]
   - x[V1,C8,C9] + x[V1,C9,D0] + x[V1,C9,C1] + x[V1,C9,C2] + x[V1,C9,C3]
   + x[V1,C9,C4] + x[V1,C9,C5] + x[V1,C9,C6] + x[V1,C9,C7] + x[V1,C9,C8]
   + x[V1,C9,C10] - x[V1,C10,C9] = 0
 Flow_balance_V1_C10: - x[V1,D0,C10] - x[V1,C1,C10] - x[V1,C2,C10]
   - x[V1,C3,C10] - x[V1,C4,C10] - x[V1,C5,C10] - x[V1,C6,C10]
   - x[V1,C7,C10] - x[V1,C8,C10] - x[V1,C9,C10] + x[V1,C10,D0]
   + x[V1,C10,C1] + x[V1,C10,C2] + x[V1,C10,C3] + x[V1,C10,C4]
   + x[V1,C10,C5] + x[V1,C10,C6] + x[V1,C10,C7] + x[V1,C10,C8]
   + x[V1,C10,C9] = 0
 Flow_balance_V2_C1: - x[V2,D0,C1] + x[V2,C1,D0] + x[V2,C1,C2]
   + x[V2,C1,C3] + x[V2,C1,C4] + x[V2,C1,C5] + x[V2,C1,C6] + x[V2,C1,C7]
   + x[V2,C1,C8] + x[V2,C1,C9] + x[V2,C1,C10] - x[V2,C2,C1] - x[V2,C3,C1]
   - x[V2,C4,C1] - x[V2,C5,C1] - x[V2,C6,C1] - x[V2,C7,C1] - x[V2,C8,C1]
   - x[V2,C9,C1] - x[V2,C10,C1] = 0
 Flow_balance_V2_C2: - x[V2,D0,C2] - x[V2,C1,C2] + x[V2,C2,D0]
   + x[V2,C2,C1] + x[V2,C2,C3] + x[V2,C2,C4] + x[V2,C2,C5] + x[V2,C2,C6]
   + x[V2,C2,C7] + x[V2,C2,C8] + x[V2,C2,C9] + x[V2,C2,C10] - x[V2,C3,C2]
   - x[V2,C4,C2] - x[V2,C5,C2] - x[V2,C6,C2] - x[V2,C7,C2] - x[V2,C8,C2]
   - x[V2,C9,C2] - x[V2,C10,C2] = 0
 Flow_balance_V2_C3: - x[V2,D0,C3] - x[V2,C1,C3] - x[V2,C2,C3]
   + x[V2,C3,D0] + x[V2,C3,C1] + x[V2,C3,C2] + x[V2,C3,C4] + x[V2,C3,C5]
   + x[V2,C3,C6] + x[V2,C3,C7] + x[V2,C3,C8] + x[V2,C3,C9] + x[V2,C3,C10]
   - x[V2,C4,C3] - x[V2,C5,C3] - x[V2,C6,C3] - x[V2,C7,C3] - x[V2,C8,C3]
   - x[V2,C9,C3] - x[V2,C10,C3] = 0
 Flow_balance_V2_C4: - x[V2,D0,C4] - x[V2,C1,C4] - x[V2,C2,C4]
   - x[V2,C3,C4] + x[V2,C4,D0] + x[V2,C4,C1] + x[V2,C4,C2] + x[V2,C4,C3]
   + x[V2,C4,C5] + x[V2,C4,C6] + x[V2,C4,C7] + x[V2,C4,C8] + x[V2,C4,C9]
   + x[V2,C4,C10] - x[V2,C5,C4] - x[V2,C6,C4] - x[V2,C7,C4] - x[V2,C8,C4]
   - x[V2,C9,C4] - x[V2,C10,C4] = 0
 Flow_balance_V2_C5: - x[V2,D0,C5] - x[V2,C1,C5] - x[V2,C2,C5]
   - x[V2,C3,C5] - x[V2,C4,C5] + x[V2,C5,D0] + x[V2,C5,C1] + x[V2,C5,C2]
   + x[V2,C5,C3] + x[V2,C5,C4] + x[V2,C5,C6] + x[V2,C5,C7] + x[V2,C5,C8]
   + x[V2,C5,C9] + x[V2,C5,C10] - x[V2,C6,C5] - x[V2,C7,C5] - x[V2,C8,C5]
   - x[V2,C9,C5] - x[V2,C10,C5] = 0
 Flow_balance_V2_C6: - x[V2,D0,C6] - x[V2,C1,C6] - x[V2,C2,C6]
   - x[V2,C3,C6] - x[V2,C4,C6] - x[V2,C5,C6] + x[V2,C6,D0] + x[V2,C6,C1]
   + x[V2,C6,C2] + x[V2,C6,C3] + x[V2,C6,C4] + x[V2,C6,C5] + x[V2,C6,C7]
   + x[V2,C6,C8] + x[V2,C6,C9] + x[V2,C6,C10] - x[V2,C7,C6] - x[V2,C8,C6]
   - x[V2,C9,C6] - x[V2,C10,C6] = 0
 Flow_balance_V2_C7: - x[V2,D0,C7] - x[V2,C1,C7] - x[V2,C2,C7]
   - x[V2,C3,C7] - x[V2,C4,C7] - x[V2,C5,C7] - x[V2,C6,C7] + x[V2,C7,D0]
   + x[V2,C7,C1] + x[V2,C7,C2] + x[V2,C7,C3] + x[V2,C7,C4] + x[V2,C7,C5]
   + x[V2,C7,C6] + x[V2,C7,C8] + x[V2,C7,C9] + x[V2,C7,C10] - x[V2,C8,C7]
   - x[V2,C9,C7] - x[V2,C10,C7] = 0
 Flow_balance_V2_C8: - x[V2,D0,C8] - x[V2,C1,C8] - x[V2,C2,C8]
   - x[V2,C3,C8] - x[V2,C4,C8] - x[V2,C5,C8] - x[V2,C6,C8] - x[V2,C7,C8]
   + x[V2,C8,D0] + x[V2,C8,C1] + x[V2,C8,C2] + x[V2,C8,C3] + x[V2,C8,C4]
   + x[V2,C8,C5] + x[V2,C8,C6] + x[V2,C8,C7] + x[V2,C8,C9] + x[V2,C8,C10]
   - x[V2,C9,C8] - x[V2,C10,C8] = 0
 Flow_balance_V2_C9: - x[V2,D0,C9] - x[V2,C1,C9] - x[V2,C2,C9]
   - x[V2,C3,C9] - x[V2,C4,C9] - x[V2,C5,C9] - x[V2,C6,C9] - x[V2,C7,C9]
   - x[V2,C8,C9] + x[V2,C9,D0] + x[V2,C9,C1] + x[V2,C9,C2] + x[V2,C9,C3]
   + x[V2,C9,C4] + x[V2,C9,C5] + x[V2,C9,C6] + x[V2,C9,C7] + x[V2,C9,C8]
   + x[V2,C9,C10] - x[V2,C10,C9] = 0
 Flow_balance_V2_C10: - x[V2,D0,C10] - x[V2,C1,C10] - x[V2,C2,C10]
   - x[V2,C3,C10] - x[V2,C4,C10] - x[V2,C5,C10] - x[V2,C6,C10]
   - x[V2,C7,C10] - x[V2,C8,C10] - x[V2,C9,C10] + x[V2,C10,D0]
   + x[V2,C10,C1] + x[V2,C10,C2] + x[V2,C10,C3] + x[V2,C10,C4]
   + x[V2,C10,C5] + x[V2,C10,C6] + x[V2,C10,C7] + x[V2,C10,C8]
   + x[V2,C10,C9] = 0
 Payload_V1: 3.85 x[V1,C1,D0] + 3.85 x[V1,C1,C2] + 3.85 x[V1,C1,C3]
   + 3.85 x[V1,C1,C4] + 3.85 x[V1,C1,C5] + 3.85 x[V1,C1,C6]
   + 3.85 x[V1,C1,C7] + 3.85 x[V1,C1,C8] + 3.85 x[V1,C1,C9]
   + 3.85 x[V1,C1,C10] + 4.89 x[V1,C2,D0] + 4.89 x[V1,C2,C1]
   + 4.89 x[V1,C2,C3] + 4.89 x[V1,C2,C4] + 4.89 x[V1,C2,C5]
   + 4.89 x[V1,C2,C6] + 4.89 x[V1,C2,C7] + 4.89 x[V1,C2,C8]
   + 4.89 x[V1,C2,C9] + 4.89 x[V1,C2,C10] + 1.4 x[V1,C3,D0]
   + 1.4 x[V1,C3,C1] + 1.4 x[V1,C3,C2] + 1.4 x[V1,C3,C4] + 1.4 x[V1,C3,C5]
   + 1.4 x[V1,C3,C6] + 1.4 x[V1,C3,C7] + 1.4 x[V1,C3,C8] + 1.4 x[V1,C3,C9]
   + 1.4 x[V1,C3,C10] + 4.69 x[V1,C4,D0] + 4.69 x[V1,C4,C1]
   + 4.69 x[V1,C4,C2] + 4.69 x[V1,C4,C3] + 4.69 x[V1,C4,C5]
   + 4.69 x[V1,C4,C6] + 4.69 x[V1,C4,C7] + 4.69 x[V1,C4,C8]
   + 4.69 x[V1,C4,C9] + 4.69 x[V1,C4,C10] + 3.51 x[V1,C5,D0]
   + 3.51 x[V1,C5,C1] + 3.51 x[V1,C5,C2] + 3.51 x[V1,C5,C3]
   + 3.51 x[V1,C5,C4] + 3.51 x[V1,C5,C6] + 3.51 x[V1,C5,C7]
   + 3.51 x[V1,C5,C8] + 3.51 x[V1,C5,C9] + 3.51 x[V1,C5,C10]
   + 3.37 x[V1,C6,D0] + 3.37 x[V1,C6,C1] + 3.37 x[V1,C6,C2]
   + 3.37 x[V1,C6,C3] + 3.37 x[V1,C6,C4] + 3.37 x[V1,C6,C5]
   + 3.37 x[V1,C6,C7] + 3.37 x[V1,C6,C8] + 3.37 x[V1,C6,C9]
   + 3.37 x[V1,C6,C10] + 3.17 x[V1,C7,D0] + 3.17 x[V1,C7,C1]
   + 3.17 x[V1,C7,C2] + 3.17 x[V1,C7,C3] + 3.17 x[V1,C7,C4]
   + 3.17 x[V1,C7,C5] + 3.17 x[V1,C7,C6] + 3.17 x[V1,C7,C8]
   + 3.17 x[V1,C7,C9] + 3.17 x[V1,C7,C10] + 4.82 x[V1,C8,D0]
   + 4.82 x[V1,C8,C1] + 4.82 x[V1,C8,C2] + 4.82 x[V1,C8,C3]
   + 4.82 x[V1,C8,C4] + 4.82 x[V1,C8,C5] + 4.82 x[V1,C8,C6]
   + 4.82 x[V1,C8,C7] + 4.82 x[V1,C8,C9] + 4.82 x[V1,C8,C10]
   + 3.81 x[V1,C9,D0] + 3.81 x[V1,C9,C1] + 3.81 x[V1,C9,C2]
   + 3.81 x[V1,C9,C3] + 3.81 x[V1,C9,C4] + 3.81 x[V1,C9,C5]
   + 3.81 x[V1,C9,C6] + 3.81 x[V1,C9,C7] + 3.81 x[V1,C9,C8]
   + 3.81 x[V1,C9,C10] + 1.84 x[V1,C10,D0] + 1.84 x[V1,C10,C1]
   + 1.84 x[V1,C10,C2] + 1.84 x[V1,C10,C3] + 1.84 x[V1,C10,C4]
   + 1.84 x[V1,C10,C5] + 1.84 x[V1,C10,C6] + 1.84 x[V1,C10,C7]
   + 1.84 x[V1,C10,C8] + 1.84 x[V1,C10,C9] <= 1000
 Payload_V2: 3.85 x[V2,C1,D0] + 3.85 x[V2,C1,C2] + 3.85 x[V2,C1,C3]
   + 3.85 x[V2,C1,C4] + 3.85 x[V2,C1,C5] + 3.85 x[V2,C1,C6]
   + 3.85 x[V2,C1,C7] + 3.85 x[V2,C1,C8] + 3.85 x[V2,C1,C9]
   + 3.85 x[V2,C1,C10] + 4.89 x[V2,C2,D0] + 4.89 x[V2,C2,C1]
   + 4.89 x[V2,C2,C3] + 4.89 x[V2,C2,C4] + 4.89 x[V2,C2,C5]
   + 4.89 x[V2,C2,C6] + 4.89 x[V2,C2,C7] + 4.89 x[V2,C2,C8]
   + 4.89 x[V2,C2,C9] + 4.89 x[V2,C2,C10] + 1.4 x[V2,C3,D0]
   + 1.4 x[V2,C3,C1] + 1.4 x[V2,C3,C2] + 1.4 x[V2,C3,C4] + 1.4 x[V2,C3,C5]
   + 1.4 x[V2,C3,C6] + 1.4 x[V2,C3,C7] + 1.4 x[V2,C3,C8] + 1.4 x[V2,C3,C9]
   + 1.4 x[V2,C3,C10] + 4.69 x[V2,C4,D0] + 4.69 x[V2,C4,C1]
   + 4.69 x[V2,C4,C2] + 4.69 x[V2,C4,C3] + 4.69 x[V2,C4,C5]
   + 4.69 x[V2,C4,C6] + 4.69 x[V2,C4,C7] + 4.69 x[V2,C4,C8]
   + 4.69 x[V2,C4,C9] + 4.69 x[V2,C4,C10] + 3.51 x[V2,C5,D0]
   + 3.51 x[V2,C5,C1] + 3.51 x[V2,C5,C2] + 3.51 x[V2,C5,C3]
   + 3.51 x[V2,C5,C4] + 3.51 x[V2,C5,C6] + 3.51 x[V2,C5,C7]
   + 3.51 x[V2,C5,C8] + 3.51 x[V2,C5,C9] + 3.51 x[V2,C5,C10]
   + 3.37 x[V2,C6,D0] + 3.37 x[V2,C6,C1] + 3.37 x[V2,C6,C2]
   + 3.37 x[V2,C6,C3] + 3.37 x[V2,C6,C4] + 3.37 x[V2,C6,C5]
   + 3.37 x[V2,C6,C7] + 3.37 x[V2,C6,C8] + 3.37 x[V2,C6,C9]
   + 3.37 x[V2,C6,C10] + 3.17 x[V2,C7,D0] + 3.17 x[V2,C7,C1]
   + 3.17 x[V2,C7,C2] + 3.17 x[V2,C7,C3] + 3.17 x[V2,C7,C4]
   + 3.17 x[V2,C7,C5] + 3.17 x[V2,C7,C6] + 3.17 x[V2,C7,C8]
   + 3.17 x[V2,C7,C9] + 3.17 x[V2,C7,C10] + 4.82 x[V2,C8,D0]
   + 4.82 x[V2,C8,C1] + 4.82 x[V2,C8,C2] + 4.82 x[V2,C8,C3]
   + 4.82 x[V2,C8,C4] + 4.82 x[V2,C8,C5] + 4.82 x[V2,C8,C6]
   + 4.82 x[V2,C8,C7] + 4.82 x[V2,C8,C9] + 4.82 x[V2,C8,C10]
   + 3.81 x[V2,C9,D0] + 3.81 x[V2,C9,C1] + 3.81 x[V2,C9,C2]
   + 3.81 x[V2,C9,C3] + 3.81 x[V2,C9,C4] + 3.81 x[V2,C9,C5]
   + 3.81 x[V2,C9,C6] + 3.81 x[V2,C9,C7] + 3.81 x[V2,C9,C8]
   + 3.81 x[V2,C9,C10] + 1.84 x[V2,C10,D0] + 1.84 x[V2,C10,C1]
   + 1.84 x[V2,C10,C2] + 1.84 x[V2,C10,C3] + 1.84 x[V2,C10,C4]
   + 1.84 x[V2,C10,C5] + 1.84 x[V2,C10,C6] + 1.84 x[V2,C10,C7]
   + 1.84 x[V2,C10,C8] + 1.84 x[V2,C10,C9] <= 1000
Bounds
Binaries
 x[V1,D0,C1] x[V1,D0,C2] x[V1,D0,C3] x[V1,D0,C4] x[V1,D0,C5] x[V1,D0,C6]
 x[V1,D0,C7] x[V1,D0,C8] x[V1,D0,C9] x[V1,D0,C10] x[V1,C1,D0] x[V1,C1,C2]
 x[V1,C1,C3] x[V1,C1,C4] x[V1,C1,C5] x[V1,C1,C6] x[V1,C1,C7] x[V1,C1,C8]
 x[V1,C1,C9] x[V1,C1,C10] x[V1,C2,D0] x[V1,C2,C1] x[V1,C2,C3] x[V1,C2,C4]
 x[V1,C2,C5] x[V1,C2,C6] x[V1,C2,C7] x[V1,C2,C8] x[V1,C2,C9] x[V1,C2,C10]
 x[V1,C3,D0] x[V1,C3,C1] x[V1,C3,C2] x[V1,C3,C4] x[V1,C3,C5] x[V1,C3,C6]
 x[V1,C3,C7] x[V1,C3,C8] x[V1,C3,C9] x[V1,C3,C10] x[V1,C4,D0] x[V1,C4,C1]
 x[V1,C4,C2] x[V1,C4,C3] x[V1,C4,C5] x[V1,C4,C6] x[V1,C4,C7] x[V1,C4,C8]
 x[V1,C4,C9] x[V1,C4,C10] x[V1,C5,D0] x[V1,C5,C1] x[V1,C5,C2] x[V1,C5,C3]
 x[V1,C5,C4] x[V1,C5,C6] x[V1,C5,C7] x[V1,C5,C8] x[V1,C5,C9] x[V1,C5,C10]
 x[V1,C6,D0] x[V1,C6,C1] x[V1,C6,C2] x[V1,C6,C3] x[V1,C6,C4] x[V1,C6,C5]
 x[V1,C6,C7] x[V1,C6,C8] x[V1,C6,C9] x[V1,C6,C10] x[V1,C7,D0] x[V1,C7,C1]
 x[V1,C7,C2] x[V1,C7,C3] x[V1,C7,C4] x[V1,C7,C5] x[V1,C7,C6] x[V1,C7,C8]
 x[V1,C7,C9] x[V1,C7,C10] x[V1,C8,D0] x[V1,C8,C1] x[V1,C8,C2] x[V1,C8,C3]
 x[V1,C8,C4] x[V1,C8,C5] x[V1,C8,C6] x[V1,C8,C7] x[V1,C8,C9] x[V1,C8,C10]
 x[V1,C9,D0] x[V1,C9,C1] x[V1,C9,C2] x[V1,C9,C3] x[V1,C9,C4] x[V1,C9,C5]
 x[V1,C9,C6] x[V1,C9,C7] x[V1,C9,C8] x[V1,C9,C10] x[V1,C10,D0] x[V1,C10,C1]
 x[V1,C10,C2] x[V1,C10,C3] x[V1,C10,C4] x[V1,C10,C5] x[V1,C10,C6]
 x[V1,C10,C7] x[V1,C10,C8] x[V1,C10,C9] x[V2,D0,C1] x[V2,D0,C2] x[V2,D0,C3]
 x[V2,D0,C4] x[V2,D0,C5] x[V2,D0,C6] x[V2,D0,C7] x[V2,D0,C8] x[V2,D0,C9]
 x[V2,D0,C10] x[V2,C1,D0] x[V2,C1,C2] x[V2,C1,C3] x[V2,C1,C4] x[V2,C1,C5]
 x[V2,C1,C6] x[V2,C1,C7] x[V2,C1,C8] x[V2,C1,C9] x[V2,C1,C10] x[V2,C2,D0]
 x[V2,C2,C1] x[V2,C2,C3] x[V2,C2,C4] x[V2,C2,C5] x[V2,C2,C6] x[V2,C2,C7]
 x[V2,C2,C8] x[V2,C2,C9] x[V2,C2,C10] x[V2,C3,D0] x[V2,C3,C1] x[V2,C3,C2]
 x[V2,C3,C4] x[V2,C3,C5] x[V2,C3,C6] x[V2,C3,C7] x[V2,C3,C8] x[V2,C3,C9]
 x[V2,C3,C10] x[V2,C4,D0] x[V2,C4,C1] x[V2,C4,C2] x[V2,C4,C3] x[V2,C4,C5]
 x[V2,C4,C6] x[V2,C4,C7] x[V2,C4,C8] x[V2,C4,C9] x[V2,C4,C10] x[V2,C5,D0]
 x[V2,C5,C1] x[V2,C5,C2] x[V2,C5,C3] x[V2,C5,C4] x[V2,C5,C6] x[V2,C5,C7]
 x[V2,C5,C8] x[V2,C5,C9] x[V2,C5,C10] x[V2,C6,D0] x[V2,C6,C1] x[V2,C6,C2]
 x[V2,C6,C3] x[V2,C6,C4] x[V2,C6,C5] x[V2,C6,C7] x[V2,C6,C8] x[V2,C6,C9]
 x[V2,C6,C10] x[V2,C7,D0] x[V2,C7,C1] x[V2,C7,C2] x[V2,C7,C3] x[V2,C7,C4]
 x[V2,C7,C5] x[V2,C7,C6] x[V2,C7,C8] x[V2,C7,C9] x[V2,C7,C10] x[V2,C8,D0]
 x[V2,C8,C1] x[V2,C8,C2] x[V2,C8,C3] x[V2,C8,C4] x[V2,C8,C5] x[V2,C8,C6]
 x[V2,C8,C7] x[V2,C8,C9] x[V2,C8,C10] x[V2,C9,D0] x[V2,C9,C1] x[V2,C9,C2]
 x[V2,C9,C3] x[V2,C9,C4] x[V2,C9,C5] x[V2,C9,C6] x[V2,C9,C7] x[V2,C9,C8]
 x[V2,C9,C10] x[V2,C10,D0] x[V2,C10,C1] x[V2,C10,C2] x[V2,C10,C3]
 x[V2,C10,C4] x[V2,C10,C5] x[V2,C10,C6] x[V2,C10,C7] x[V2,C10,C8]
 x[V2,C10,C9] y[V1] y[V2]
End
